135
500
350	1
349	1
348	1
347	1
343	2
342	1
341	2
340	2
338	2
335	2
334	3
333	1
329	2
326	3
324	1
323	2
322	2
320	1
313	2
312	3
311	1
307	2
305	1
304	3
302	2
300	1
299	1
298	1
297	1
296	1
295	1
293	1
292	1
290	1
288	2
286	2
283	2
281	2
280	2
278	1
277	2
276	1
275	3
272	1
267	1
266	1
265	2
264	3
263	1
258	1
256	1
254	1
252	3
251	1
248	1
247	1
241	2
238	2
237	1
236	1
234	1
232	2
230	1
229	1
226	1
225	4
224	1
222	1
221	2
218	1
217	1
215	1
212	1
209	1
206	1
204	2
203	1
202	1
201	1
200	1
199	3
198	1
195	1
194	1
193	1
191	1
187	2
186	1
184	2
182	1
181	1
180	1
178	2
177	1
174	1
172	2
171	1
170	2
169	1
165	1
164	1
161	2
160	2
159	1
157	2
154	2
153	1
152	1
150	2
148	1
147	1
146	1
145	1
143	2
142	1
141	2
139	1
136	1
134	1
133	1
132	2
131	3
129	2
127	1
126	1
124	2
119	2
115	2
114	2
113	2
112	1
111	1
107	2
104	1
102	2
